c SAT Generator for power-law distributed variable frequencies
c -g u -v 20 -c 91 -k 3 -p 2.750000 -b 3.200000 -f /home/schmidt/Devel/ni-kop-sat/data/ensemble/ruf20-91/ruf20-91-839 -u 1 -U 1 -s 2548805894
p cnf 20 91
-1 -2 -16 0
6 7 -19 0
-1 2 15 0
-4 -10 14 0
-6 9 11 0
5 15 16 0
-4 6 9 0
9 -15 -19 0
9 11 12 0
-9 10 -14 0
-4 16 -20 0
5 -7 18 0
10 15 -16 0
-13 -15 19 0
-1 10 -19 0
6 -11 13 0
-12 17 20 0
-1 -9 -12 0
-8 9 11 0
3 9 -20 0
-3 -7 -18 0
7 10 -13 0
9 -13 -17 0
-5 -8 -10 0
-8 10 -16 0
-2 6 -14 0
-8 13 -20 0
-8 10 -12 0
3 -14 -17 0
1 -3 11 0
2 -13 19 0
-11 15 -17 0
9 18 -19 0
-10 15 20 0
-9 10 -20 0
-8 14 -20 0
-4 -13 -20 0
-4 -14 17 0
-11 15 -19 0
3 11 -14 0
-2 -4 -8 0
-2 5 -18 0
-3 -12 13 0
3 -4 9 0
1 -2 16 0
5 11 13 0
-3 14 16 0
-1 -6 13 0
5 -13 14 0
-14 17 -19 0
-2 -7 9 0
-2 -11 -15 0
-3 9 -17 0
11 15 17 0
-5 12 17 0
10 11 -14 0
-3 -7 9 0
-1 5 15 0
-1 -9 -11 0
-1 -3 -14 0
1 -4 -11 0
10 13 17 0
-1 -3 15 0
4 6 -13 0
-7 12 -17 0
-2 15 -19 0
3 -4 -11 0
12 -15 20 0
-10 -11 19 0
-1 -4 18 0
-8 -10 -20 0
6 8 -20 0
-1 -2 -9 0
-6 -12 17 0
1 -2 -5 0
11 -13 18 0
11 12 14 0
5 -8 -13 0
12 -13 -14 0
-4 7 -11 0
-4 -12 14 0
-3 8 11 0
-4 -10 16 0
8 -10 -12 0
3 -13 16 0
-16 18 -20 0
-6 -9 -14 0
-1 12 -14 0
-3 -11 -16 0
1 -12 -17 0
-1 6 -13 0
